<instance format="XCSP3" type="CSP">
  <variables>
    <array id="x" size="[3][3]"> 1..5 </array>
  </variables>
  <constraints>
    <group>
      <ordered>
        <list> %... </list>
        <operator> lt </operator>
      </ordered>
      <args> x[0][] </args>
      <args> x[1][] </args>
      <args> x[2][] </args>
    </group>
    <group>
      <extension>
        <list> %... </list>
        <supports> (1,2,3,1,4,5)(1,2,3,1,5,4)(1,2,3,2,4,5)(1,2,3,2,5,4)(1,2,3,3,4,5)(1,2,3,3,5,4)(1,2,3,4,1,5)(1,2,3,4,2,5)(1,2,3,4,3,5)(1,2,3,4,5,1)(1,2,3,4,5,2)(1,2,3,4,5,3)(1,2,3,5,1,4)(1,2,3,5,2,4)(1,2,3,5,3,4)(1,2,3,5,4,1)(1,2,3,5,4,2)(1,2,3,5,4,3)(1,2,4,1,3,5)(1,2,4,1,5,3)(1,2,4,2,3,5)(1,2,4,2,5,3)(1,2,4,3,1,5)(1,2,4,3,2,5)(1,2,4,3,4,5)(1,2,4,3,5,1)(1,2,4,3,5,2)(1,2,4,3,5,4)(1,2,4,4,3,5)(1,2,4,4,5,3)(1,2,4,5,1,3)(1,2,4,5,2,3)(1,2,4,5,3,1)(1,2,4,5,3,2)(1,2,4,5,3,4)(1,2,4,5,4,3)(1,2,5,1,3,4)(1,2,5,1,4,3)(1,2,5,2,3,4)(1,2,5,2,4,3)(1,2,5,3,1,4)(1,2,5,3,2,4)(1,2,5,3,4,1)(1,2,5,3,4,2)(1,2,5,3,4,5)(1,2,5,3,5,4)(1,2,5,4,1,3)(1,2,5,4,2,3)(1,2,5,4,3,1)(1,2,5,4,3,2)(1,2,5,4,3,5)(1,2,5,4,5,3)(1,2,5,5,3,4)(1,2,5,5,4,3)(1,3,2,1,4,5)(1,3,2,1,5,4)(1,3,2,2,4,5)(1,3,2,2,5,4)(1,3,2,3,4,5)(1,3,2,3,5,4)(1,3,2,4,1,5)(1,3,2,4,2,5)(1,3,2,4,3,5)(1,3,2,4,5,1)(1,3,2,4,5,2)(1,3,2,4,5,3)(1,3,2,5,1,4)(1,3,2,5,2,4)(1,3,2,5,3,4)(1,3,2,5,4,1)(1,3,2,5,4,2)(1,3,2,5,4,3)(1,3,4,1,2,5)(1,3,4,1,5,2)(1,3,4,2,1,5)(1,3,4,2,3,5)(1,3,4,2,4,5)(1,3,4,2,5,1)(1,3,4,2,5,3)(1,3,4,2,5,4)(1,3,4,3,2,5)(1,3,4,3,5,2)(1,3,4,4,2,5)(1,3,4,4,5,2)(1,3,4,5,1,2)(1,3,4,5,2,1)(1,3,4,5,2,3)(1,3,4,5,2,4)(1,3,4,5,3,2)(1,3,4,5,4,2)(1,3,5,1,2,4)(1,3,5,1,4,2)(1,3,5,2,1,4)(1,3,5,2,3,4)(1,3,5,2,4,1)(1,3,5,2,4,3)(1,3,5,2,4,5)(1,3,5,2,5,4)(1,3,5,3,2,4)(1,3,5,3,4,2)(1,3,5,4,1,2)(1,3,5,4,2,1)(1,3,5,4,2,3)(1,3,5,4,2,5)(1,3,5,4,3,2)(1,3,5,4,5,2)(1,3,5,5,2,4)(1,3,5,5,4,2)(1,4,2,1,3,5)(1,4,2,1,5,3)(1,4,2,2,3,5)(1,4,2,2,5,3)(1,4,2,3,1,5)(1,4,2,3,2,5)(1,4,2,3,4,5)(1,4,2,3,5,1)(1,4,2,3,5,2)(1,4,2,3,5,4)(1,4,2,4,3,5)(1,4,2,4,5,3)(1,4,2,5,1,3)(1,4,2,5,2,3)(1,4,2,5,3,1)(1,4,2,5,3,2)(1,4,2,5,3,4)(1,4,2,5,4,3)(1,4,3,1,2,5)(1,4,3,1,5,2)(1,4,3,2,1,5)(1,4,3,2,3,5)(1,4,3,2,4,5)(1,4,3,2,5,1)(1,4,3,2,5,3)(1,4,3,2,5,4)(1,4,3,3,2,5)(1,4,3,3,5,2)(1,4,3,4,2,5)(1,4,3,4,5,2)(1,4,3,5,1,2)(1,4,3,5,2,1)(1,4,3,5,2,3)(1,4,3,5,2,4)(1,4,3,5,3,2)(1,4,3,5,4,2)(1,4,5,1,2,3)(1,4,5,1,3,2)(1,4,5,2,1,3)(1,4,5,2,3,1)(1,4,5,2,3,4)(1,4,5,2,3,5)(1,4,5,2,4,3)(1,4,5,2,5,3)(1,4,5,3,1,2)(1,4,5,3,2,1)(1,4,5,3,2,4)(1,4,5,3,2,5)(1,4,5,3,4,2)(1,4,5,3,5,2)(1,4,5,4,2,3)(1,4,5,4,3,2)(1,4,5,5,2,3)(1,4,5,5,3,2)(1,5,2,1,3,4)(1,5,2,1,4,3)(1,5,2,2,3,4)(1,5,2,2,4,3)(1,5,2,3,1,4)(1,5,2,3,2,4)(1,5,2,3,4,1)(1,5,2,3,4,2)(1,5,2,3,4,5)(1,5,2,3,5,4)(1,5,2,4,1,3)(1,5,2,4,2,3)(1,5,2,4,3,1)(1,5,2,4,3,2)(1,5,2,4,3,5)(1,5,2,4,5,3)(1,5,2,5,3,4)(1,5,2,5,4,3)(1,5,3,1,2,4)(1,5,3,1,4,2)(1,5,3,2,1,4)(1,5,3,2,3,4)(1,5,3,2,4,1)(1,5,3,2,4,3)(1,5,3,2,4,5)(1,5,3,2,5,4)(1,5,3,3,2,4)(1,5,3,3,4,2)(1,5,3,4,1,2)(1,5,3,4,2,1)(1,5,3,4,2,3)(1,5,3,4,2,5)(1,5,3,4,3,2)(1,5,3,4,5,2)(1,5,3,5,2,4)(1,5,3,5,4,2)(1,5,4,1,2,3)(1,5,4,1,3,2)(1,5,4,2,1,3)(1,5,4,2,3,1)(1,5,4,2,3,4)(1,5,4,2,3,5)(1,5,4,2,4,3)(1,5,4,2,5,3)(1,5,4,3,1,2)(1,5,4,3,2,1)(1,5,4,3,2,4)(1,5,4,3,2,5)(1,5,4,3,4,2)(1,5,4,3,5,2)(1,5,4,4,2,3)(1,5,4,4,3,2)(1,5,4,5,2,3)(1,5,4,5,3,2)(2,1,3,1,4,5)(2,1,3,1,5,4)(2,1,3,2,4,5)(2,1,3,2,5,4)(2,1,3,3,4,5)(2,1,3,3,5,4)(2,1,3,4,1,5)(2,1,3,4,2,5)(2,1,3,4,3,5)(2,1,3,4,5,1)(2,1,3,4,5,2)(2,1,3,4,5,3)(2,1,3,5,1,4)(2,1,3,5,2,4)(2,1,3,5,3,4)(2,1,3,5,4,1)(2,1,3,5,4,2)(2,1,3,5,4,3)(2,1,4,1,3,5)(2,1,4,1,5,3)(2,1,4,2,3,5)(2,1,4,2,5,3)(2,1,4,3,1,5)(2,1,4,3,2,5)(2,1,4,3,4,5)(2,1,4,3,5,1)(2,1,4,3,5,2)(2,1,4,3,5,4)(2,1,4,4,3,5)(2,1,4,4,5,3)(2,1,4,5,1,3)(2,1,4,5,2,3)(2,1,4,5,3,1)(2,1,4,5,3,2)(2,1,4,5,3,4)(2,1,4,5,4,3)(2,1,5,1,3,4)(2,1,5,1,4,3)(2,1,5,2,3,4)(2,1,5,2,4,3)(2,1,5,3,1,4)(2,1,5,3,2,4)(2,1,5,3,4,1)(2,1,5,3,4,2)(2,1,5,3,4,5)(2,1,5,3,5,4)(2,1,5,4,1,3)(2,1,5,4,2,3)(2,1,5,4,3,1)(2,1,5,4,3,2)(2,1,5,4,3,5)(2,1,5,4,5,3)(2,1,5,5,3,4)(2,1,5,5,4,3)(2,3,1,1,4,5)(2,3,1,1,5,4)(2,3,1,2,4,5)(2,3,1,2,5,4)(2,3,1,3,4,5)(2,3,1,3,5,4)(2,3,1,4,1,5)(2,3,1,4,2,5)(2,3,1,4,3,5)(2,3,1,4,5,1)(2,3,1,4,5,2)(2,3,1,4,5,3)(2,3,1,5,1,4)(2,3,1,5,2,4)(2,3,1,5,3,4)(2,3,1,5,4,1)(2,3,1,5,4,2)(2,3,1,5,4,3)(2,3,4,1,2,5)(2,3,4,1,3,5)(2,3,4,1,4,5)(2,3,4,1,5,2)(2,3,4,1,5,3)(2,3,4,1,5,4)(2,3,4,2,1,5)(2,3,4,2,5,1)(2,3,4,3,1,5)(2,3,4,3,5,1)(2,3,4,4,1,5)(2,3,4,4,5,1)(2,3,4,5,1,2)(2,3,4,5,1,3)(2,3,4,5,1,4)(2,3,4,5,2,1)(2,3,4,5,3,1)(2,3,4,5,4,1)(2,3,5,1,2,4)(2,3,5,1,3,4)(2,3,5,1,4,2)(2,3,5,1,4,3)(2,3,5,1,4,5)(2,3,5,1,5,4)(2,3,5,2,1,4)(2,3,5,2,4,1)(2,3,5,3,1,4)(2,3,5,3,4,1)(2,3,5,4,1,2)(2,3,5,4,1,3)(2,3,5,4,1,5)(2,3,5,4,2,1)(2,3,5,4,3,1)(2,3,5,4,5,1)(2,3,5,5,1,4)(2,3,5,5,4,1)(2,4,1,1,3,5)(2,4,1,1,5,3)(2,4,1,2,3,5)(2,4,1,2,5,3)(2,4,1,3,1,5)(2,4,1,3,2,5)(2,4,1,3,4,5)(2,4,1,3,5,1)(2,4,1,3,5,2)(2,4,1,3,5,4)(2,4,1,4,3,5)(2,4,1,4,5,3)(2,4,1,5,1,3)(2,4,1,5,2,3)(2,4,1,5,3,1)(2,4,1,5,3,2)(2,4,1,5,3,4)(2,4,1,5,4,3)(2,4,3,1,2,5)(2,4,3,1,3,5)(2,4,3,1,4,5)(2,4,3,1,5,2)(2,4,3,1,5,3)(2,4,3,1,5,4)(2,4,3,2,1,5)(2,4,3,2,5,1)(2,4,3,3,1,5)(2,4,3,3,5,1)(2,4,3,4,1,5)(2,4,3,4,5,1)(2,4,3,5,1,2)(2,4,3,5,1,3)(2,4,3,5,1,4)(2,4,3,5,2,1)(2,4,3,5,3,1)(2,4,3,5,4,1)(2,4,5,1,2,3)(2,4,5,1,3,2)(2,4,5,1,3,4)(2,4,5,1,3,5)(2,4,5,1,4,3)(2,4,5,1,5,3)(2,4,5,2,1,3)(2,4,5,2,3,1)(2,4,5,3,1,2)(2,4,5,3,1,4)(2,4,5,3,1,5)(2,4,5,3,2,1)(2,4,5,3,4,1)(2,4,5,3,5,1)(2,4,5,4,1,3)(2,4,5,4,3,1)(2,4,5,5,1,3)(2,4,5,5,3,1)(2,5,1,1,3,4)(2,5,1,1,4,3)(2,5,1,2,3,4)(2,5,1,2,4,3)(2,5,1,3,1,4)(2,5,1,3,2,4)(2,5,1,3,4,1)(2,5,1,3,4,2)(2,5,1,3,4,5)(2,5,1,3,5,4)(2,5,1,4,1,3)(2,5,1,4,2,3)(2,5,1,4,3,1)(2,5,1,4,3,2)(2,5,1,4,3,5)(2,5,1,4,5,3)(2,5,1,5,3,4)(2,5,1,5,4,3)(2,5,3,1,2,4)(2,5,3,1,3,4)(2,5,3,1,4,2)(2,5,3,1,4,3)(2,5,3,1,4,5)(2,5,3,1,5,4)(2,5,3,2,1,4)(2,5,3,2,4,1)(2,5,3,3,1,4)(2,5,3,3,4,1)(2,5,3,4,1,2)(2,5,3,4,1,3)(2,5,3,4,1,5)(2,5,3,4,2,1)(2,5,3,4,3,1)(2,5,3,4,5,1)(2,5,3,5,1,4)(2,5,3,5,4,1)(2,5,4,1,2,3)(2,5,4,1,3,2)(2,5,4,1,3,4)(2,5,4,1,3,5)(2,5,4,1,4,3)(2,5,4,1,5,3)(2,5,4,2,1,3)(2,5,4,2,3,1)(2,5,4,3,1,2)(2,5,4,3,1,4)(2,5,4,3,1,5)(2,5,4,3,2,1)(2,5,4,3,4,1)(2,5,4,3,5,1)(2,5,4,4,1,3)(2,5,4,4,3,1)(2,5,4,5,1,3)(2,5,4,5,3,1)(3,1,2,1,4,5)(3,1,2,1,5,4)(3,1,2,2,4,5)(3,1,2,2,5,4)(3,1,2,3,4,5)(3,1,2,3,5,4)(3,1,2,4,1,5)(3,1,2,4,2,5)(3,1,2,4,3,5)(3,1,2,4,5,1)(3,1,2,4,5,2)(3,1,2,4,5,3)(3,1,2,5,1,4)(3,1,2,5,2,4)(3,1,2,5,3,4)(3,1,2,5,4,1)(3,1,2,5,4,2)(3,1,2,5,4,3)(3,1,4,1,2,5)(3,1,4,1,5,2)(3,1,4,2,1,5)(3,1,4,2,3,5)(3,1,4,2,4,5)(3,1,4,2,5,1)(3,1,4,2,5,3)(3,1,4,2,5,4)(3,1,4,3,2,5)(3,1,4,3,5,2)(3,1,4,4,2,5)(3,1,4,4,5,2)(3,1,4,5,1,2)(3,1,4,5,2,1)(3,1,4,5,2,3)(3,1,4,5,2,4)(3,1,4,5,3,2)(3,1,4,5,4,2)(3,1,5,1,2,4)(3,1,5,1,4,2)(3,1,5,2,1,4)(3,1,5,2,3,4)(3,1,5,2,4,1)(3,1,5,2,4,3)(3,1,5,2,4,5)(3,1,5,2,5,4)(3,1,5,3,2,4)(3,1,5,3,4,2)(3,1,5,4,1,2)(3,1,5,4,2,1)(3,1,5,4,2,3)(3,1,5,4,2,5)(3,1,5,4,3,2)(3,1,5,4,5,2)(3,1,5,5,2,4)(3,1,5,5,4,2)(3,2,1,1,4,5)(3,2,1,1,5,4)(3,2,1,2,4,5)(3,2,1,2,5,4)(3,2,1,3,4,5)(3,2,1,3,5,4)(3,2,1,4,1,5)(3,2,1,4,2,5)(3,2,1,4,3,5)(3,2,1,4,5,1)(3,2,1,4,5,2)(3,2,1,4,5,3)(3,2,1,5,1,4)(3,2,1,5,2,4)(3,2,1,5,3,4)(3,2,1,5,4,1)(3,2,1,5,4,2)(3,2,1,5,4,3)(3,2,4,1,2,5)(3,2,4,1,3,5)(3,2,4,1,4,5)(3,2,4,1,5,2)(3,2,4,1,5,3)(3,2,4,1,5,4)(3,2,4,2,1,5)(3,2,4,2,5,1)(3,2,4,3,1,5)(3,2,4,3,5,1)(3,2,4,4,1,5)(3,2,4,4,5,1)(3,2,4,5,1,2)(3,2,4,5,1,3)(3,2,4,5,1,4)(3,2,4,5,2,1)(3,2,4,5,3,1)(3,2,4,5,4,1)(3,2,5,1,2,4)(3,2,5,1,3,4)(3,2,5,1,4,2)(3,2,5,1,4,3)(3,2,5,1,4,5)(3,2,5,1,5,4)(3,2,5,2,1,4)(3,2,5,2,4,1)(3,2,5,3,1,4)(3,2,5,3,4,1)(3,2,5,4,1,2)(3,2,5,4,1,3)(3,2,5,4,1,5)(3,2,5,4,2,1)(3,2,5,4,3,1)(3,2,5,4,5,1)(3,2,5,5,1,4)(3,2,5,5,4,1)(3,4,1,1,2,5)(3,4,1,1,5,2)(3,4,1,2,1,5)(3,4,1,2,3,5)(3,4,1,2,4,5)(3,4,1,2,5,1)(3,4,1,2,5,3)(3,4,1,2,5,4)(3,4,1,3,2,5)(3,4,1,3,5,2)(3,4,1,4,2,5)(3,4,1,4,5,2)(3,4,1,5,1,2)(3,4,1,5,2,1)(3,4,1,5,2,3)(3,4,1,5,2,4)(3,4,1,5,3,2)(3,4,1,5,4,2)(3,4,2,1,2,5)(3,4,2,1,3,5)(3,4,2,1,4,5)(3,4,2,1,5,2)(3,4,2,1,5,3)(3,4,2,1,5,4)(3,4,2,2,1,5)(3,4,2,2,5,1)(3,4,2,3,1,5)(3,4,2,3,5,1)(3,4,2,4,1,5)(3,4,2,4,5,1)(3,4,2,5,1,2)(3,4,2,5,1,3)(3,4,2,5,1,4)(3,4,2,5,2,1)(3,4,2,5,3,1)(3,4,2,5,4,1)(3,4,5,1,2,3)(3,4,5,1,2,4)(3,4,5,1,2,5)(3,4,5,1,3,2)(3,4,5,1,4,2)(3,4,5,1,5,2)(3,4,5,2,1,3)(3,4,5,2,1,4)(3,4,5,2,1,5)(3,4,5,2,3,1)(3,4,5,2,4,1)(3,4,5,2,5,1)(3,4,5,3,1,2)(3,4,5,3,2,1)(3,4,5,4,1,2)(3,4,5,4,2,1)(3,4,5,5,1,2)(3,4,5,5,2,1)(3,5,1,1,2,4)(3,5,1,1,4,2)(3,5,1,2,1,4)(3,5,1,2,3,4)(3,5,1,2,4,1)(3,5,1,2,4,3)(3,5,1,2,4,5)(3,5,1,2,5,4)(3,5,1,3,2,4)(3,5,1,3,4,2)(3,5,1,4,1,2)(3,5,1,4,2,1)(3,5,1,4,2,3)(3,5,1,4,2,5)(3,5,1,4,3,2)(3,5,1,4,5,2)(3,5,1,5,2,4)(3,5,1,5,4,2)(3,5,2,1,2,4)(3,5,2,1,3,4)(3,5,2,1,4,2)(3,5,2,1,4,3)(3,5,2,1,4,5)(3,5,2,1,5,4)(3,5,2,2,1,4)(3,5,2,2,4,1)(3,5,2,3,1,4)(3,5,2,3,4,1)(3,5,2,4,1,2)(3,5,2,4,1,3)(3,5,2,4,1,5)(3,5,2,4,2,1)(3,5,2,4,3,1)(3,5,2,4,5,1)(3,5,2,5,1,4)(3,5,2,5,4,1)(3,5,4,1,2,3)(3,5,4,1,2,4)(3,5,4,1,2,5)(3,5,4,1,3,2)(3,5,4,1,4,2)(3,5,4,1,5,2)(3,5,4,2,1,3)(3,5,4,2,1,4)(3,5,4,2,1,5)(3,5,4,2,3,1)(3,5,4,2,4,1)(3,5,4,2,5,1)(3,5,4,3,1,2)(3,5,4,3,2,1)(3,5,4,4,1,2)(3,5,4,4,2,1)(3,5,4,5,1,2)(3,5,4,5,2,1)(4,1,2,1,3,5)(4,1,2,1,5,3)(4,1,2,2,3,5)(4,1,2,2,5,3)(4,1,2,3,1,5)(4,1,2,3,2,5)(4,1,2,3,4,5)(4,1,2,3,5,1)(4,1,2,3,5,2)(4,1,2,3,5,4)(4,1,2,4,3,5)(4,1,2,4,5,3)(4,1,2,5,1,3)(4,1,2,5,2,3)(4,1,2,5,3,1)(4,1,2,5,3,2)(4,1,2,5,3,4)(4,1,2,5,4,3)(4,1,3,1,2,5)(4,1,3,1,5,2)(4,1,3,2,1,5)(4,1,3,2,3,5)(4,1,3,2,4,5)(4,1,3,2,5,1)(4,1,3,2,5,3)(4,1,3,2,5,4)(4,1,3,3,2,5)(4,1,3,3,5,2)(4,1,3,4,2,5)(4,1,3,4,5,2)(4,1,3,5,1,2)(4,1,3,5,2,1)(4,1,3,5,2,3)(4,1,3,5,2,4)(4,1,3,5,3,2)(4,1,3,5,4,2)(4,1,5,1,2,3)(4,1,5,1,3,2)(4,1,5,2,1,3)(4,1,5,2,3,1)(4,1,5,2,3,4)(4,1,5,2,3,5)(4,1,5,2,4,3)(4,1,5,2,5,3)(4,1,5,3,1,2)(4,1,5,3,2,1)(4,1,5,3,2,4)(4,1,5,3,2,5)(4,1,5,3,4,2)(4,1,5,3,5,2)(4,1,5,4,2,3)(4,1,5,4,3,2)(4,1,5,5,2,3)(4,1,5,5,3,2)(4,2,1,1,3,5)(4,2,1,1,5,3)(4,2,1,2,3,5)(4,2,1,2,5,3)(4,2,1,3,1,5)(4,2,1,3,2,5)(4,2,1,3,4,5)(4,2,1,3,5,1)(4,2,1,3,5,2)(4,2,1,3,5,4)(4,2,1,4,3,5)(4,2,1,4,5,3)(4,2,1,5,1,3)(4,2,1,5,2,3)(4,2,1,5,3,1)(4,2,1,5,3,2)(4,2,1,5,3,4)(4,2,1,5,4,3)(4,2,3,1,2,5)(4,2,3,1,3,5)(4,2,3,1,4,5)(4,2,3,1,5,2)(4,2,3,1,5,3)(4,2,3,1,5,4)(4,2,3,2,1,5)(4,2,3,2,5,1)(4,2,3,3,1,5)(4,2,3,3,5,1)(4,2,3,4,1,5)(4,2,3,4,5,1)(4,2,3,5,1,2)(4,2,3,5,1,3)(4,2,3,5,1,4)(4,2,3,5,2,1)(4,2,3,5,3,1)(4,2,3,5,4,1)(4,2,5,1,2,3)(4,2,5,1,3,2)(4,2,5,1,3,4)(4,2,5,1,3,5)(4,2,5,1,4,3)(4,2,5,1,5,3)(4,2,5,2,1,3)(4,2,5,2,3,1)(4,2,5,3,1,2)(4,2,5,3,1,4)(4,2,5,3,1,5)(4,2,5,3,2,1)(4,2,5,3,4,1)(4,2,5,3,5,1)(4,2,5,4,1,3)(4,2,5,4,3,1)(4,2,5,5,1,3)(4,2,5,5,3,1)(4,3,1,1,2,5)(4,3,1,1,5,2)(4,3,1,2,1,5)(4,3,1,2,3,5)(4,3,1,2,4,5)(4,3,1,2,5,1)(4,3,1,2,5,3)(4,3,1,2,5,4)(4,3,1,3,2,5)(4,3,1,3,5,2)(4,3,1,4,2,5)(4,3,1,4,5,2)(4,3,1,5,1,2)(4,3,1,5,2,1)(4,3,1,5,2,3)(4,3,1,5,2,4)(4,3,1,5,3,2)(4,3,1,5,4,2)(4,3,2,1,2,5)(4,3,2,1,3,5)(4,3,2,1,4,5)(4,3,2,1,5,2)(4,3,2,1,5,3)(4,3,2,1,5,4)(4,3,2,2,1,5)(4,3,2,2,5,1)(4,3,2,3,1,5)(4,3,2,3,5,1)(4,3,2,4,1,5)(4,3,2,4,5,1)(4,3,2,5,1,2)(4,3,2,5,1,3)(4,3,2,5,1,4)(4,3,2,5,2,1)(4,3,2,5,3,1)(4,3,2,5,4,1)(4,3,5,1,2,3)(4,3,5,1,2,4)(4,3,5,1,2,5)(4,3,5,1,3,2)(4,3,5,1,4,2)(4,3,5,1,5,2)(4,3,5,2,1,3)(4,3,5,2,1,4)(4,3,5,2,1,5)(4,3,5,2,3,1)(4,3,5,2,4,1)(4,3,5,2,5,1)(4,3,5,3,1,2)(4,3,5,3,2,1)(4,3,5,4,1,2)(4,3,5,4,2,1)(4,3,5,5,1,2)(4,3,5,5,2,1)(4,5,1,1,2,3)(4,5,1,1,3,2)(4,5,1,2,1,3)(4,5,1,2,3,1)(4,5,1,2,3,4)(4,5,1,2,3,5)(4,5,1,2,4,3)(4,5,1,2,5,3)(4,5,1,3,1,2)(4,5,1,3,2,1)(4,5,1,3,2,4)(4,5,1,3,2,5)(4,5,1,3,4,2)(4,5,1,3,5,2)(4,5,1,4,2,3)(4,5,1,4,3,2)(4,5,1,5,2,3)(4,5,1,5,3,2)(4,5,2,1,2,3)(4,5,2,1,3,2)(4,5,2,1,3,4)(4,5,2,1,3,5)(4,5,2,1,4,3)(4,5,2,1,5,3)(4,5,2,2,1,3)(4,5,2,2,3,1)(4,5,2,3,1,2)(4,5,2,3,1,4)(4,5,2,3,1,5)(4,5,2,3,2,1)(4,5,2,3,4,1)(4,5,2,3,5,1)(4,5,2,4,1,3)(4,5,2,4,3,1)(4,5,2,5,1,3)(4,5,2,5,3,1)(4,5,3,1,2,3)(4,5,3,1,2,4)(4,5,3,1,2,5)(4,5,3,1,3,2)(4,5,3,1,4,2)(4,5,3,1,5,2)(4,5,3,2,1,3)(4,5,3,2,1,4)(4,5,3,2,1,5)(4,5,3,2,3,1)(4,5,3,2,4,1)(4,5,3,2,5,1)(4,5,3,3,1,2)(4,5,3,3,2,1)(4,5,3,4,1,2)(4,5,3,4,2,1)(4,5,3,5,1,2)(4,5,3,5,2,1)(5,1,2,1,3,4)(5,1,2,1,4,3)(5,1,2,2,3,4)(5,1,2,2,4,3)(5,1,2,3,1,4)(5,1,2,3,2,4)(5,1,2,3,4,1)(5,1,2,3,4,2)(5,1,2,3,4,5)(5,1,2,3,5,4)(5,1,2,4,1,3)(5,1,2,4,2,3)(5,1,2,4,3,1)(5,1,2,4,3,2)(5,1,2,4,3,5)(5,1,2,4,5,3)(5,1,2,5,3,4)(5,1,2,5,4,3)(5,1,3,1,2,4)(5,1,3,1,4,2)(5,1,3,2,1,4)(5,1,3,2,3,4)(5,1,3,2,4,1)(5,1,3,2,4,3)(5,1,3,2,4,5)(5,1,3,2,5,4)(5,1,3,3,2,4)(5,1,3,3,4,2)(5,1,3,4,1,2)(5,1,3,4,2,1)(5,1,3,4,2,3)(5,1,3,4,2,5)(5,1,3,4,3,2)(5,1,3,4,5,2)(5,1,3,5,2,4)(5,1,3,5,4,2)(5,1,4,1,2,3)(5,1,4,1,3,2)(5,1,4,2,1,3)(5,1,4,2,3,1)(5,1,4,2,3,4)(5,1,4,2,3,5)(5,1,4,2,4,3)(5,1,4,2,5,3)(5,1,4,3,1,2)(5,1,4,3,2,1)(5,1,4,3,2,4)(5,1,4,3,2,5)(5,1,4,3,4,2)(5,1,4,3,5,2)(5,1,4,4,2,3)(5,1,4,4,3,2)(5,1,4,5,2,3)(5,1,4,5,3,2)(5,2,1,1,3,4)(5,2,1,1,4,3)(5,2,1,2,3,4)(5,2,1,2,4,3)(5,2,1,3,1,4)(5,2,1,3,2,4)(5,2,1,3,4,1)(5,2,1,3,4,2)(5,2,1,3,4,5)(5,2,1,3,5,4)(5,2,1,4,1,3)(5,2,1,4,2,3)(5,2,1,4,3,1)(5,2,1,4,3,2)(5,2,1,4,3,5)(5,2,1,4,5,3)(5,2,1,5,3,4)(5,2,1,5,4,3)(5,2,3,1,2,4)(5,2,3,1,3,4)(5,2,3,1,4,2)(5,2,3,1,4,3)(5,2,3,1,4,5)(5,2,3,1,5,4)(5,2,3,2,1,4)(5,2,3,2,4,1)(5,2,3,3,1,4)(5,2,3,3,4,1)(5,2,3,4,1,2)(5,2,3,4,1,3)(5,2,3,4,1,5)(5,2,3,4,2,1)(5,2,3,4,3,1)(5,2,3,4,5,1)(5,2,3,5,1,4)(5,2,3,5,4,1)(5,2,4,1,2,3)(5,2,4,1,3,2)(5,2,4,1,3,4)(5,2,4,1,3,5)(5,2,4,1,4,3)(5,2,4,1,5,3)(5,2,4,2,1,3)(5,2,4,2,3,1)(5,2,4,3,1,2)(5,2,4,3,1,4)(5,2,4,3,1,5)(5,2,4,3,2,1)(5,2,4,3,4,1)(5,2,4,3,5,1)(5,2,4,4,1,3)(5,2,4,4,3,1)(5,2,4,5,1,3)(5,2,4,5,3,1)(5,3,1,1,2,4)(5,3,1,1,4,2)(5,3,1,2,1,4)(5,3,1,2,3,4)(5,3,1,2,4,1)(5,3,1,2,4,3)(5,3,1,2,4,5)(5,3,1,2,5,4)(5,3,1,3,2,4)(5,3,1,3,4,2)(5,3,1,4,1,2)(5,3,1,4,2,1)(5,3,1,4,2,3)(5,3,1,4,2,5)(5,3,1,4,3,2)(5,3,1,4,5,2)(5,3,1,5,2,4)(5,3,1,5,4,2)(5,3,2,1,2,4)(5,3,2,1,3,4)(5,3,2,1,4,2)(5,3,2,1,4,3)(5,3,2,1,4,5)(5,3,2,1,5,4)(5,3,2,2,1,4)(5,3,2,2,4,1)(5,3,2,3,1,4)(5,3,2,3,4,1)(5,3,2,4,1,2)(5,3,2,4,1,3)(5,3,2,4,1,5)(5,3,2,4,2,1)(5,3,2,4,3,1)(5,3,2,4,5,1)(5,3,2,5,1,4)(5,3,2,5,4,1)(5,3,4,1,2,3)(5,3,4,1,2,4)(5,3,4,1,2,5)(5,3,4,1,3,2)(5,3,4,1,4,2)(5,3,4,1,5,2)(5,3,4,2,1,3)(5,3,4,2,1,4)(5,3,4,2,1,5)(5,3,4,2,3,1)(5,3,4,2,4,1)(5,3,4,2,5,1)(5,3,4,3,1,2)(5,3,4,3,2,1)(5,3,4,4,1,2)(5,3,4,4,2,1)(5,3,4,5,1,2)(5,3,4,5,2,1)(5,4,1,1,2,3)(5,4,1,1,3,2)(5,4,1,2,1,3)(5,4,1,2,3,1)(5,4,1,2,3,4)(5,4,1,2,3,5)(5,4,1,2,4,3)(5,4,1,2,5,3)(5,4,1,3,1,2)(5,4,1,3,2,1)(5,4,1,3,2,4)(5,4,1,3,2,5)(5,4,1,3,4,2)(5,4,1,3,5,2)(5,4,1,4,2,3)(5,4,1,4,3,2)(5,4,1,5,2,3)(5,4,1,5,3,2)(5,4,2,1,2,3)(5,4,2,1,3,2)(5,4,2,1,3,4)(5,4,2,1,3,5)(5,4,2,1,4,3)(5,4,2,1,5,3)(5,4,2,2,1,3)(5,4,2,2,3,1)(5,4,2,3,1,2)(5,4,2,3,1,4)(5,4,2,3,1,5)(5,4,2,3,2,1)(5,4,2,3,4,1)(5,4,2,3,5,1)(5,4,2,4,1,3)(5,4,2,4,3,1)(5,4,2,5,1,3)(5,4,2,5,3,1)(5,4,3,1,2,3)(5,4,3,1,2,4)(5,4,3,1,2,5)(5,4,3,1,3,2)(5,4,3,1,4,2)(5,4,3,1,5,2)(5,4,3,2,1,3)(5,4,3,2,1,4)(5,4,3,2,1,5)(5,4,3,2,3,1)(5,4,3,2,4,1)(5,4,3,2,5,1)(5,4,3,3,1,2)(5,4,3,3,2,1)(5,4,3,4,1,2)(5,4,3,4,2,1)(5,4,3,5,1,2)(5,4,3,5,2,1) </supports>
      </extension>
      <args> x[0..1][] </args>
      <args> x[0][] x[2][] </args>
      <args> x[1..2][] </args>
    </group>
  </constraints>
</instance>
